100
32
18
21
32
22
5
10
24
30
9
10
8
13
17
26
23
26
14
1
7
28
3
20
14
20
13
27
16
6
2
8
14
19
32
29
18
3
9
26
10
5
4
2
22
18
23
12
9
14
31
19
20
32
18
1
2
29
31
10
10
7
8
1
30
20
22
4
18
30
18
14
12
21
11
30
23
1
19
5
24
6
19
13
26
2
6
7
31
6
18
13
17
1
12
29
20
24
30
23
8
8